24° run output:
{
    "Function": "kroA750.tsp",
    "Problem dimension": [
        545,
        525,
        78,
        37,
        344,
        157,
        436,
        540,
        446,
        400,
        207,
        273,
        43,
        130,
        518,
        100,
        704,
        532,
        97,
        715,
        593,
        45,
        72,
        438,
        359,
        449,
        554,
        223,
        34,
        214,
        650,
        490,
        298,
        747,
        637,
        173,
        660,
        262,
        703,
        246,
        149,
        469,
        635,
        83,
        4,
        182,
        416,
        287,
        689,
        526,
        556,
        368,
        285,
        357,
        456,
        447,
        339,
        464,
        163,
        588,
        248,
        6,
        174,
        354,
        336,
        119,
        500,
        52,
        137,
        99,
        431,
        674,
        333,
        131,
        403,
        75,
        705,
        325,
        305,
        578,
        744,
        87,
        234,
        690,
        32,
        629,
        363,
        480,
        548,
        196,
        606,
        749,
        644,
        687,
        580,
        345,
        544,
        101,
        676,
        341,
        10,
        314,
        678,
        327,
        351,
        237,
        332,
        291,
        289,
        622,
        729,
        559,
        452,
        374,
        33,
        585,
        552,
        718,
        617,
        77,
        497,
        696,
        669,
        477,
        147,
        655,
        523,
        199,
        595,
        542,
        624,
        133,
        427,
        730,
        103,
        673,
        355,
        230,
        189,
        609,
        736,
        634,
        69,
        115,
        125,
        511,
        484,
        152,
        164,
        716,
        410,
        488,
        315,
        407,
        296,
        626,
        204,
        65,
        48,
        661,
        506,
        213,
        450,
        630,
        695,
        187,
        476,
        721,
        59,
        148,
        565,
        265,
        304,
        748,
        371,
        26,
        42,
        180,
        604,
        564,
        41,
        321,
        323,
        429,
        670,
        176,
        206,
        423,
        216,
        467,
        498,
        379,
        583,
        64,
        186,
        14,
        236,
        167,
        688,
        508,
        529,
        582,
        303,
        433,
        557,
        136,
        82,
        193,
        412,
        733,
        530,
        35,
        68,
        657,
        528,
        684,
        300,
        241,
        742,
        515,
        337,
        589,
        590,
        215,
        188,
        135,
        384,
        608,
        245,
        286,
        120,
        39,
        640,
        107,
        350,
        47,
        397,
        5,
        422,
        414,
        312,
        86,
        453,
        680,
        475,
        404,
        394,
        194,
        331,
        737,
        28,
        377,
        612,
        408,
        598,
        577,
        302,
        17,
        732,
        311,
        413,
        94,
        636,
        444,
        445,
        516,
        197,
        501,
        153,
        726,
        383,
        487,
        60,
        393,
        8,
        663,
        693,
        271,
        616,
        561,
        468,
        269,
        243,
        392,
        575,
        646,
        247,
        707,
        478,
        165,
        681,
        293,
        113,
        53,
        376,
        127,
        324,
        667,
        641,
        740,
        727,
        613,
        717,
        15,
        46,
        210,
        132,
        126,
        454,
        494,
        238,
        329,
        496,
        708,
        536,
        343,
        728,
        232,
        292,
        175,
        493,
        316,
        672,
        605,
        146,
        116,
        348,
        385,
        281,
        562,
        457,
        169,
        571,
        543,
        140,
        277,
        156,
        621,
        108,
        492,
        466,
        390,
        278,
        656,
        62,
        519,
        340,
        3,
        80,
        369,
        106,
        675,
        261,
        428,
        586,
        70,
        600,
        555,
        549,
        592,
        7,
        307,
        685,
        282,
        482,
        128,
        698,
        632,
        741,
        743,
        18,
        627,
        79,
        242,
        177,
        455,
        686,
        328,
        495,
        25,
        84,
        664,
        240,
        81,
        677,
        326,
        638,
        195,
        172,
        22,
        442,
        124,
        576,
        51,
        547,
        527,
        23,
        117,
        226,
        272,
        92,
        651,
        335,
        61,
        463,
        734,
        597,
        594,
        534,
        581,
        91,
        0,
        256,
        36,
        109,
        104,
        430,
        295,
        507,
        95,
        154,
        462,
        185,
        54,
        184,
        702,
        373,
        372,
        388,
        178,
        398,
        244,
        233,
        319,
        121,
        402,
        486,
        645,
        192,
        725,
        405,
        144,
        138,
        723,
        504,
        619,
        420,
        439,
        309,
        665,
        171,
        395,
        276,
        253,
        29,
        347,
        353,
        570,
        458,
        648,
        249,
        599,
        399,
        520,
        141,
        346,
        517,
        268,
        334,
        421,
        96,
        418,
        524,
        19,
        360,
        11,
        270,
        299,
        89,
        58,
        274,
        162,
        118,
        260,
        631,
        710,
        514,
        389,
        209,
        112,
        203,
        671,
        322,
        367,
        652,
        231,
        424,
        551,
        587,
        227,
        71,
        93,
        365,
        49,
        85,
        288,
        129,
        57,
        21,
        267,
        366,
        250,
        145,
        151,
        411,
        294,
        235,
        537,
        338,
        290,
        224,
        659,
        709,
        181,
        584,
        483,
        88,
        122,
        222,
        123,
        628,
        310,
        653,
        509,
        505,
        257,
        228,
        264,
        699,
        563,
        381,
        560,
        623,
        502,
        618,
        56,
        239,
        110,
        513,
        662,
        9,
        98,
        168,
        510,
        738,
        735,
        229,
        409,
        31,
        474,
        601,
        531,
        66,
        279,
        642,
        481,
        44,
        679,
        306,
        252,
        470,
        74,
        607,
        349,
        170,
        225,
        255,
        719,
        219,
        205,
        114,
        166,
        489,
        441,
        574,
        714,
        611,
        301,
        539,
        297,
        512,
        425,
        364,
        434,
        711,
        134,
        330,
        391,
        358,
        380,
        553,
        435,
        567,
        602,
        550,
        370,
        459,
        27,
        401,
        473,
        160,
        150,
        356,
        461,
        720,
        668,
        485,
        625,
        251,
        701,
        283,
        694,
        745,
        13,
        313,
        460,
        275,
        183,
        746,
        308,
        647,
        352,
        479,
        731,
        179,
        654,
        208,
        448,
        217,
        471,
        443,
        200,
        50,
        610,
        159,
        362,
        503,
        12,
        406,
        320,
        541,
        342,
        615,
        73,
        212,
        683,
        361,
        220,
        614,
        521,
        426,
        682,
        38,
        713,
        535,
        465,
        579,
        712,
        263,
        639,
        568,
        440,
        572,
        633,
        722,
        666,
        375,
        691,
        221,
        90,
        620,
        67,
        161,
        63,
        211,
        417,
        643,
        158,
        472,
        387,
        573,
        499,
        697,
        437,
        649,
        30,
        739,
        700,
        284,
        706,
        596,
        266,
        254,
        451,
        522,
        603,
        546,
        692,
        102,
        55,
        202,
        191,
        20,
        155,
        317,
        538,
        111,
        419,
        24,
        415,
        533,
        259,
        190,
        1,
        142,
        382,
        258,
        569,
        139,
        566,
        143,
        318,
        396,
        105,
        2,
        591,
        386,
        558,
        76,
        491,
        16,
        432,
        378,
        218,
        280,
        201,
        198,
        724,
        40,
        658
    ],
    "Global Optimum": 0,
    "Algorithm": "Genetic algorithm",
    "Parameters": {
        "population": 30,
        "offspring": 30,
        "mutation probability": 0.0013333333333333333,
        "crossover probability": 0.9
    },
    "Fitness": 968832,
    "Solution": [
        545,
        525,
        78,
        37,
        344,
        157,
        436,
        540,
        446,
        400,
        207,
        273,
        43,
        130,
        518,
        100,
        704,
        532,
        97,
        715,
        593,
        45,
        72,
        438,
        359,
        449,
        554,
        223,
        34,
        214,
        650,
        490,
        298,
        747,
        637,
        173,
        660,
        262,
        703,
        246,
        149,
        469,
        635,
        83,
        4,
        182,
        416,
        287,
        689,
        526,
        556,
        368,
        285,
        357,
        456,
        447,
        339,
        464,
        163,
        588,
        248,
        6,
        174,
        354,
        336,
        119,
        500,
        52,
        137,
        99,
        431,
        674,
        333,
        131,
        403,
        75,
        705,
        325,
        305,
        578,
        744,
        87,
        234,
        690,
        32,
        629,
        363,
        480,
        548,
        196,
        606,
        749,
        644,
        687,
        580,
        345,
        544,
        101,
        676,
        341,
        10,
        314,
        678,
        327,
        351,
        237,
        332,
        291,
        289,
        622,
        729,
        559,
        452,
        374,
        33,
        585,
        552,
        718,
        617,
        77,
        497,
        696,
        669,
        477,
        147,
        655,
        523,
        199,
        595,
        542,
        624,
        133,
        427,
        730,
        103,
        673,
        355,
        230,
        189,
        609,
        736,
        634,
        69,
        115,
        125,
        511,
        484,
        152,
        164,
        716,
        410,
        488,
        315,
        407,
        296,
        626,
        204,
        65,
        48,
        661,
        506,
        213,
        450,
        630,
        695,
        187,
        476,
        721,
        59,
        148,
        565,
        265,
        304,
        748,
        371,
        26,
        42,
        180,
        604,
        564,
        41,
        321,
        323,
        429,
        670,
        176,
        206,
        423,
        216,
        467,
        498,
        379,
        583,
        64,
        186,
        14,
        236,
        167,
        688,
        508,
        529,
        582,
        303,
        433,
        557,
        136,
        82,
        193,
        412,
        733,
        530,
        35,
        68,
        657,
        528,
        684,
        300,
        241,
        742,
        515,
        337,
        589,
        590,
        215,
        188,
        135,
        384,
        608,
        245,
        286,
        120,
        39,
        640,
        107,
        350,
        47,
        397,
        5,
        422,
        414,
        312,
        86,
        453,
        680,
        475,
        404,
        394,
        194,
        331,
        737,
        28,
        377,
        612,
        408,
        598,
        577,
        302,
        17,
        732,
        311,
        413,
        94,
        636,
        444,
        445,
        516,
        197,
        501,
        153,
        726,
        383,
        487,
        60,
        393,
        8,
        663,
        693,
        271,
        616,
        561,
        468,
        269,
        243,
        392,
        575,
        646,
        247,
        707,
        478,
        165,
        681,
        293,
        113,
        53,
        376,
        127,
        324,
        667,
        641,
        740,
        727,
        613,
        717,
        15,
        46,
        210,
        132,
        126,
        454,
        494,
        238,
        329,
        496,
        708,
        536,
        343,
        728,
        232,
        292,
        175,
        493,
        316,
        672,
        605,
        146,
        116,
        348,
        385,
        281,
        562,
        457,
        169,
        571,
        543,
        140,
        277,
        156,
        621,
        108,
        492,
        466,
        390,
        278,
        656,
        62,
        519,
        340,
        3,
        80,
        369,
        106,
        675,
        261,
        428,
        586,
        70,
        600,
        555,
        549,
        592,
        7,
        307,
        685,
        282,
        482,
        128,
        698,
        632,
        741,
        743,
        18,
        627,
        79,
        242,
        177,
        455,
        686,
        328,
        495,
        25,
        84,
        664,
        240,
        81,
        677,
        326,
        638,
        195,
        172,
        22,
        442,
        124,
        576,
        51,
        547,
        527,
        23,
        117,
        226,
        272,
        92,
        651,
        335,
        61,
        463,
        734,
        597,
        594,
        534,
        581,
        91,
        0,
        256,
        36,
        109,
        104,
        430,
        295,
        507,
        95,
        154,
        462,
        185,
        54,
        184,
        702,
        373,
        372,
        388,
        178,
        398,
        244,
        233,
        319,
        121,
        402,
        486,
        645,
        192,
        725,
        405,
        144,
        138,
        723,
        504,
        619,
        420,
        439,
        309,
        665,
        171,
        395,
        276,
        253,
        29,
        347,
        353,
        570,
        458,
        648,
        249,
        599,
        399,
        520,
        141,
        346,
        517,
        268,
        334,
        421,
        96,
        418,
        524,
        19,
        360,
        11,
        270,
        299,
        89,
        58,
        274,
        162,
        118,
        260,
        631,
        710,
        514,
        389,
        209,
        112,
        203,
        671,
        322,
        367,
        652,
        231,
        424,
        551,
        587,
        227,
        71,
        93,
        365,
        49,
        85,
        288,
        129,
        57,
        21,
        267,
        366,
        250,
        145,
        151,
        411,
        294,
        235,
        537,
        338,
        290,
        224,
        659,
        709,
        181,
        584,
        483,
        88,
        122,
        222,
        123,
        628,
        310,
        653,
        509,
        505,
        257,
        228,
        264,
        699,
        563,
        381,
        560,
        623,
        502,
        618,
        56,
        239,
        110,
        513,
        662,
        9,
        98,
        168,
        510,
        738,
        735,
        229,
        409,
        31,
        474,
        601,
        531,
        66,
        279,
        642,
        481,
        44,
        679,
        306,
        252,
        470,
        74,
        607,
        349,
        170,
        225,
        255,
        719,
        219,
        205,
        114,
        166,
        489,
        441,
        574,
        714,
        611,
        301,
        539,
        297,
        512,
        425,
        364,
        434,
        711,
        134,
        330,
        391,
        358,
        380,
        553,
        435,
        567,
        602,
        550,
        370,
        459,
        27,
        401,
        473,
        160,
        150,
        356,
        461,
        720,
        668,
        485,
        625,
        251,
        701,
        283,
        694,
        745,
        13,
        313,
        460,
        275,
        183,
        746,
        308,
        647,
        352,
        479,
        731,
        179,
        654,
        208,
        448,
        217,
        471,
        443,
        200,
        50,
        610,
        159,
        362,
        503,
        12,
        406,
        320,
        541,
        342,
        615,
        73,
        212,
        683,
        361,
        220,
        614,
        521,
        426,
        682,
        38,
        713,
        535,
        465,
        579,
        712,
        263,
        639,
        568,
        440,
        572,
        633,
        722,
        666,
        375,
        691,
        221,
        90,
        620,
        67,
        161,
        63,
        211,
        417,
        643,
        158,
        472,
        387,
        573,
        499,
        697,
        437,
        649,
        30,
        739,
        700,
        284,
        706,
        596,
        266,
        254,
        451,
        522,
        603,
        546,
        692,
        102,
        55,
        202,
        191,
        20,
        155,
        317,
        538,
        111,
        419,
        24,
        415,
        533,
        259,
        190,
        1,
        142,
        382,
        258,
        569,
        139,
        566,
        143,
        318,
        396,
        105,
        2,
        591,
        386,
        558,
        76,
        491,
        16,
        432,
        378,
        218,
        280,
        201,
        198,
        724,
        40,
        658
    ],
    "Nb of functions evaluations": 200010,
    "Computational time in seconds": 1707.2848873138428,
    "Stopping criterion in evaluations": 200000
}